(set-info :smt-lib-version 2.6)

(set-info :source |
Generated by: Amar Shah
Generated on: 2024-12-11
Generator: Verus
Application: Verification of Rust Program
Target solver: z3
Time limit: 10
Benchmarks generated by the Rust verifier Verus (https://verus-lang.github.io/verus/guide/) on the project Verismo (https://www.usenix.org/conference/osdi24/presentation/zhou) 
and processed using Mariposa (https://github.com/secure-foundations/mariposa).
This benchmarks was originally run with z3 with the following options:
    (set-option :auto_config false)
    (set-option :smt.mbqi false)
    (set-option :smt.case_split 3)
    (set-option :smt.qi.eager_threshold 100.0)
    (set-option :smt.delay_units true)
    (set-option :smt.arith.solver 2)
    (set-option :smt.arith.nl false)
    (set-option :pi.enabled false)
    (set-option :rewriter.sort_disjunctions false)
|)
(set-info :license "https://creativecommons.org/licenses/by/4.0/")
(set-info :category "industrial")
(set-info :status unsat)
(declare-sort %%Function%% 0)
(declare-sort FuelId 0)
(declare-sort Fuel 0)
(declare-const zero Fuel)
(declare-fun succ (Fuel) Fuel)
(declare-fun fuel_bool (FuelId) Bool)
(declare-fun fuel_bool_default (FuelId) Bool)
(declare-const fuel_defaults Bool)
(assert (=> fuel_defaults (forall ((id FuelId)) (! (= (fuel_bool id) (fuel_bool_default id)) :pattern ((fuel_bool id)) ))))
(declare-sort Char 0)
(declare-fun char%from_unicode (Int) Char)
(declare-fun char%to_unicode (Char) Int)
(declare-sort StrSlice 0)
(declare-fun str%strslice_is_ascii (StrSlice) Bool)
(declare-fun str%strslice_len (StrSlice) Int)
(declare-fun str%strslice_get_char (StrSlice Int) Char)
(declare-fun str%new_strlit (Int) StrSlice)
(declare-fun str%from_strlit (StrSlice) Int)
(declare-datatypes ((fndef 0)) (((fndef_singleton ))))
(declare-sort Poly 0)
(declare-sort Height 0)
(declare-fun I (Int) Poly)
(declare-fun B (Bool) Poly)
(declare-fun F (fndef) Poly)
(declare-fun %I (Poly) Int)
(declare-fun %B (Poly) Bool)
(declare-fun %F (Poly) fndef)
(declare-fun S (StrSlice) Poly)
(declare-fun %S (Poly) StrSlice)
(declare-fun C (Char) Poly)
(declare-fun %C (Poly) Char)
(declare-sort Type 0)
(declare-const BOOL Type)
(declare-const INT Type)
(declare-const NAT Type)
(declare-const STRSLICE Type)
(declare-const CHAR Type)
(declare-fun UINT (Int) Type)
(declare-fun SINT (Int) Type)
(declare-fun CONST_INT (Int) Type)
(declare-sort Dcr 0)
(declare-const $ Dcr)
(declare-fun REF (Dcr) Dcr)
(declare-fun MUT_REF (Dcr) Dcr)
(declare-fun BOX (Dcr) Dcr)
(declare-fun RC (Dcr) Dcr)
(declare-fun ARC (Dcr) Dcr)
(declare-fun GHOST (Dcr) Dcr)
(declare-fun TRACKED (Dcr) Dcr)
(declare-fun NEVER (Dcr) Dcr)
(declare-fun ARRAY (Dcr Type Dcr Type) Type)
(declare-fun SLICE (Dcr Type) Type)
(declare-fun has_type (Poly Type) Bool)
(declare-fun as_type (Poly Type) Poly)
(declare-fun mk_fun (%%Function%%) %%Function%%)
(declare-fun const_int (Type) Int)
(assert (forall ((i Int)) (! (= i (const_int (CONST_INT i))) :pattern ((CONST_INT i)) )))
(assert (forall ((b Bool)) (! (has_type (B b) BOOL) :pattern ((has_type (B b) BOOL)) )))
(assert (forall ((x Poly) (t Type)) (! (and (has_type (as_type x t) t) (=> (has_type x t) (= x (as_type x t)))) :pattern ((as_type x t)) )))
(assert (forall ((x %%Function%%)) (! (= (mk_fun x) x) :pattern ((mk_fun x)) )))
(assert (forall ((x Bool)) (! (= x (%B (B x))) :pattern ((B x)) )))
(assert (forall ((x Int)) (! (= x (%I (I x))) :pattern ((I x)) )))
(assert (forall ((x Poly)) (! (=> (has_type x BOOL) (= x (B (%B x)))) :pattern ((has_type x BOOL)) )))
(assert (forall ((x Poly)) (! (=> (has_type x INT) (= x (I (%I x)))) :pattern ((has_type x INT)) )))
(assert (forall ((x Poly)) (! (=> (has_type x NAT) (= x (I (%I x)))) :pattern ((has_type x NAT)) )))
(assert (forall ((bits Int) (x Poly)) (! (=> (has_type x (UINT bits)) (= x (I (%I x)))) :pattern ((has_type x (UINT bits))) )))
(assert (forall ((bits Int) (x Poly)) (! (=> (has_type x (SINT bits)) (= x (I (%I x)))) :pattern ((has_type x (SINT bits))) )))
(assert (forall ((x Int)) (! (= (str%from_strlit (str%new_strlit x)) x) :pattern ((str%new_strlit x)) )))
(assert (forall ((x Poly)) (! (=> (has_type x STRSLICE) (= x (S (%S x)))) :pattern ((has_type x STRSLICE)) )))
(assert (forall ((x StrSlice)) (! (= x (%S (S x))) :pattern ((S x)) )))
(assert (forall ((x StrSlice)) (! (has_type (S x) STRSLICE) :pattern ((has_type (S x) STRSLICE)) )))
(declare-fun ext_eq (Bool Type Poly Poly) Bool)
(assert (forall ((deep Bool) (t Type) (x Poly) (y Poly)) (! (= (= x y) (ext_eq deep t x y)) :pattern ((ext_eq deep t x y)) )))
(declare-const SZ Int)
(assert (= SZ 64))
(declare-fun uHi (Int) Int)
(declare-fun iLo (Int) Int)
(declare-fun iHi (Int) Int)
(assert (= (uHi 8) 256))
(assert (= (uHi 16) 65536))
(assert (= (uHi 32) 4294967296))
(assert (= (uHi 64) 18446744073709551616))
(assert (= (uHi 128) (+ 1 340282366920938463463374607431768211455)))
(assert (= (iLo 8) (- 128)))
(assert (= (iLo 16) (- 32768)))
(assert (= (iLo 32) (- 2147483648)))
(assert (= (iLo 64) (- 9223372036854775808)))
(assert (= (iLo 128) (- 170141183460469231731687303715884105728)))
(assert (= (iHi 8) 128))
(assert (= (iHi 16) 32768))
(assert (= (iHi 32) 2147483648))
(assert (= (iHi 64) 9223372036854775808))
(assert (= (iHi 128) 170141183460469231731687303715884105728))
(declare-fun nClip (Int) Int)
(declare-fun uClip (Int Int) Int)
(declare-fun iClip (Int Int) Int)
(assert (forall ((i Int)) (! (and (<= 0 (nClip i)) (=> (<= 0 i) (= i (nClip i)))) :pattern ((nClip i)) )))
(assert (forall ((bits Int) (i Int)) (! (and (<= 0 (uClip bits i)) (< (uClip bits i) (uHi bits)) (=> (and (<= 0 i) (< i (uHi bits))) (= i (uClip bits i)))) :pattern ((uClip bits i)) )))
(assert (forall ((bits Int) (i Int)) (! (and (<= (iLo bits) (iClip bits i)) (< (iClip bits i) (iHi bits)) (=> (and (<= (iLo bits) i) (< i (iHi bits))) (= i (iClip bits i)))) :pattern ((iClip bits i)) )))
(declare-fun uInv (Int Int) Bool)
(declare-fun iInv (Int Int) Bool)
(assert (forall ((bits Int) (i Int)) (! (= (uInv bits i) (and (<= 0 i) (< i (uHi bits)))) :pattern ((uInv bits i)) )))
(assert (forall ((bits Int) (i Int)) (! (= (iInv bits i) (and (<= (iLo bits) i) (< i (iHi bits)))) :pattern ((iInv bits i)) )))
(assert (forall ((x Int)) (! (has_type (I x) INT) :pattern ((has_type (I x) INT)) )))
(assert (forall ((x Int)) (! (=> (<= 0 x) (has_type (I x) NAT)) :pattern ((has_type (I x) NAT)) )))
(assert (forall ((bits Int) (x Int)) (! (=> (uInv bits x) (has_type (I x) (UINT bits))) :pattern ((has_type (I x) (UINT bits))) )))
(assert (forall ((bits Int) (x Int)) (! (=> (iInv bits x) (has_type (I x) (SINT bits))) :pattern ((has_type (I x) (SINT bits))) )))
(assert (forall ((x Poly)) (! (=> (has_type x NAT) (<= 0 (%I x))) :pattern ((has_type x NAT)) )))
(assert (forall ((bits Int) (x Poly)) (! (=> (has_type x (UINT bits)) (uInv bits (%I x))) :pattern ((has_type x (UINT bits))) )))
(assert (forall ((bits Int) (x Poly)) (! (=> (has_type x (SINT bits)) (iInv bits (%I x))) :pattern ((has_type x (SINT bits))) )))
(declare-fun Add (Int Int) Int)
(declare-fun Sub (Int Int) Int)
(assert (forall ((x Int) (y Int)) (! (= (Add x y) (+ x y)) :pattern ((Add x y)))))
(assert (forall ((x Int) (y Int)) (! (= (Sub x y) (- x y)) :pattern ((Sub x y)))))
(assert (forall ((x Poly)) (! (=> (has_type x CHAR) (= x (C (%C x)))) :pattern ((has_type x CHAR)) )))
(assert (forall ((x Char)) (! (= x (%C (C x))) :pattern ((C x)) )))
(assert (forall ((x Char)) (! (has_type (C x) CHAR) :pattern ((has_type (C x) CHAR)) )))
(assert (forall ((x Int)) (! (=> (and (<= 0 x) (< x (uHi 32))) (= x (char%to_unicode (char%from_unicode x)))) :pattern ((char%from_unicode x)) )))
(assert (forall ((c Char)) (! (and (<= 0 (char%to_unicode c)) (< (char%to_unicode c) (uHi 32))) :pattern ((char%to_unicode c)) )))
(declare-fun height (Poly) Height)
(declare-fun height_lt (Height Height) Bool)
(declare-fun fun_from_recursive_field (Poly) Poly)
(declare-fun check_decrease_int (Int Int Bool) Bool)
(assert (forall ((cur Int) (prev Int) (otherwise Bool)) (! (= (check_decrease_int cur prev otherwise) (or (and (<= 0 cur) (< cur prev)) (and (= cur prev) otherwise))) :pattern ((check_decrease_int cur prev otherwise)) )))
(declare-fun check_decrease_height (Poly Poly Bool) Bool)
(assert (forall ((cur Poly) (prev Poly) (otherwise Bool)) (! (= (check_decrease_height cur prev otherwise) (or (height_lt (height cur) (height prev)) (and (= (height cur) (height prev)) otherwise))) :pattern ((check_decrease_height cur prev otherwise)) )))
(declare-fun uintxor (Int Poly Poly) Int)
(declare-fun uintand (Int Poly Poly) Int)
(declare-fun uintor (Int Poly Poly) Int)
(declare-fun uintshr (Int Poly Poly) Int)
(declare-fun uintshl (Int Poly Poly) Int)
(declare-fun uintnot (Int Poly) Int)
(declare-fun singular_mod (Int Int) Int)
(declare-fun closure_req (Type Dcr Type Poly Poly) Bool)
(declare-fun closure_ens (Type Dcr Type Poly Poly Poly) Bool)
(declare-const fuel%vstd!std_specs.option.impl&%0.get_Some_0. FuelId)
(declare-const fuel%verismo!arch.entities.impl&%4.as_int. FuelId)
(declare-const fuel%verismo!arch.entities.impl&%4.from_int. FuelId)
(declare-const fuel%verismo!arch.entities.impl&%5.ord_int. FuelId)
(declare-const fuel%verismo!arch.entities.impl&%6.spec_from_int. FuelId)
(declare-const fuel%verismo!arch.entities.impl&%9.is_VMPL0. FuelId)
(declare-const fuel%verismo!arch.entities.impl&%9.is_VMPL1. FuelId)
(declare-const fuel%verismo!arch.entities.impl&%9.is_VMPL2. FuelId)
(declare-const fuel%verismo!arch.entities.impl&%9.is_VMPL3. FuelId)
(assert (distinct fuel%vstd!std_specs.option.impl&%0.get_Some_0. fuel%verismo!arch.entities.impl&%4.as_int. fuel%verismo!arch.entities.impl&%4.from_int. fuel%verismo!arch.entities.impl&%5.ord_int. fuel%verismo!arch.entities.impl&%6.spec_from_int. fuel%verismo!arch.entities.impl&%9.is_VMPL0. fuel%verismo!arch.entities.impl&%9.is_VMPL1. fuel%verismo!arch.entities.impl&%9.is_VMPL2. fuel%verismo!arch.entities.impl&%9.is_VMPL3.))
(declare-datatypes ((core!option.Option. 0) (verismo!arch.entities.VMPL. 0)) (((core!option.Option./None ) (core!option.Option./Some (core!option.Option./Some/?0 Poly))) ((verismo!arch.entities.VMPL./VMPL0 ) (verismo!arch.entities.VMPL./VMPL1 ) (verismo!arch.entities.VMPL./VMPL2 ) (verismo!arch.entities.VMPL./VMPL3 ))))
(declare-fun core!option.Option./Some/0 (core!option.Option.) Poly)
(declare-fun TYPE%core!option.Option. (Dcr Type) Type)
(declare-const TYPE%verismo!arch.entities.VMPL. Type)
(declare-fun Poly%core!option.Option. (core!option.Option.) Poly)
(declare-fun %Poly%core!option.Option. (Poly) core!option.Option.)
(declare-fun Poly%verismo!arch.entities.VMPL. (verismo!arch.entities.VMPL.) Poly)
(declare-fun %Poly%verismo!arch.entities.VMPL. (Poly) verismo!arch.entities.VMPL.)
(assert (forall ((x core!option.Option.)) (! (= x (%Poly%core!option.Option. (Poly%core!option.Option. x))) :pattern ((Poly%core!option.Option. x)) )))
(assert (forall ((V&. Dcr) (V& Type) (x Poly)) (! (=> (has_type x (TYPE%core!option.Option. V&. V&)) (= x (Poly%core!option.Option. (%Poly%core!option.Option. x)))) :pattern ((has_type x (TYPE%core!option.Option. V&. V&))) )))
(assert (forall ((V&. Dcr) (V& Type)) (! (has_type (Poly%core!option.Option. core!option.Option./None) (TYPE%core!option.Option. V&. V&)) :pattern ((has_type (Poly%core!option.Option. core!option.Option./None) (TYPE%core!option.Option. V&. V&))) )))
(assert (forall ((V&. Dcr) (V& Type) (_0! Poly)) (! (=> (has_type _0! V&) (has_type (Poly%core!option.Option. (core!option.Option./Some _0!)) (TYPE%core!option.Option. V&. V&))) :pattern ((has_type (Poly%core!option.Option. (core!option.Option./Some _0!)) (TYPE%core!option.Option. V&. V&))) )))
(assert (forall ((x core!option.Option.)) (! (= (core!option.Option./Some/0 x) (core!option.Option./Some/?0 x)) :pattern ((core!option.Option./Some/0 x)) )))
(assert (forall ((V&. Dcr) (V& Type) (x Poly)) (! (=> (has_type x (TYPE%core!option.Option. V&. V&)) (has_type (core!option.Option./Some/0 (%Poly%core!option.Option. x)) V&)) :pattern ((core!option.Option./Some/0 (%Poly%core!option.Option. x)) (has_type x (TYPE%core!option.Option. V&. V&))) )))
;(define-fun is-core!option.Option./Some_ ((c core!option.Option.)) Bool ((_ is core!option.Option./Some) c))
(assert (forall ((x core!option.Option.)) (! (=> ((_ is core!option.Option./Some) x) (height_lt (height (core!option.Option./Some/0 x)) (height (Poly%core!option.Option. x)))) :pattern ((height (core!option.Option./Some/0 x))) )))
;(define-fun is-core!option.Option./None_ ((c core!option.Option.)) Bool ((_ is core!option.Option./None) c))
(assert (forall ((V&. Dcr) (V& Type) (deep Bool) (x Poly) (y Poly)) (! (=> (and (has_type x (TYPE%core!option.Option. V&. V&)) (has_type y (TYPE%core!option.Option. V&. V&)) ((_ is core!option.Option./None) (%Poly%core!option.Option. x)) ((_ is core!option.Option./None) (%Poly%core!option.Option. y))) (ext_eq deep (TYPE%core!option.Option. V&. V&) x y)) :pattern ((ext_eq deep (TYPE%core!option.Option. V&. V&) x y)) )))
(assert (forall ((V&. Dcr) (V& Type) (deep Bool) (x Poly) (y Poly)) (! (=> (and (has_type x (TYPE%core!option.Option. V&. V&)) (has_type y (TYPE%core!option.Option. V&. V&)) ((_ is core!option.Option./Some) (%Poly%core!option.Option. x)) ((_ is core!option.Option./Some) (%Poly%core!option.Option. y)) (ext_eq deep V& (core!option.Option./Some/0 (%Poly%core!option.Option. x)) (core!option.Option./Some/0 (%Poly%core!option.Option. y)))) (ext_eq deep (TYPE%core!option.Option. V&. V&) x y)) :pattern ((ext_eq deep (TYPE%core!option.Option. V&. V&) x y)) )))
(assert (forall ((x verismo!arch.entities.VMPL.)) (! (= x (%Poly%verismo!arch.entities.VMPL. (Poly%verismo!arch.entities.VMPL. x))) :pattern ((Poly%verismo!arch.entities.VMPL. x)) )))
(assert (forall ((x Poly)) (! (=> (has_type x TYPE%verismo!arch.entities.VMPL.) (= x (Poly%verismo!arch.entities.VMPL. (%Poly%verismo!arch.entities.VMPL. x)))) :pattern ((has_type x TYPE%verismo!arch.entities.VMPL.)) )))
(assert (forall ((x verismo!arch.entities.VMPL.)) (! (has_type (Poly%verismo!arch.entities.VMPL. x) TYPE%verismo!arch.entities.VMPL.) :pattern ((has_type (Poly%verismo!arch.entities.VMPL. x) TYPE%verismo!arch.entities.VMPL.)) )))
(declare-fun tr_bound%vstd!std_specs.option.OptionAdditionalFns. (Dcr Type Dcr Type) Bool)
(declare-fun tr_bound%verismo!tspec.integer.IntValue. (Dcr Type) Bool)
(declare-fun tr_bound%verismo!tspec.integer.IntOrd. (Dcr Type) Bool)
(declare-fun vstd!std_specs.option.OptionAdditionalFns.get_Some_0.? (Dcr Type Dcr Type Poly) Poly)
(declare-fun vstd!std_specs.option.OptionAdditionalFns.get_Some_0%default%.? (Dcr Type Dcr Type Poly) Poly)
(declare-fun verismo!tspec.integer.IntValue.as_int.? (Dcr Type Poly) Poly)
(declare-fun verismo!tspec.integer.IntValue.as_int%default%.? (Dcr Type Poly) Poly)
(declare-fun verismo!tspec.integer.IntValue.from_int.? (Dcr Type Poly) Poly)
(declare-fun verismo!tspec.integer.IntValue.from_int%default%.? (Dcr Type Poly) Poly)
(declare-fun verismo!tspec.integer.IntOrd.ord_int.? (Dcr Type Poly) Poly)
(declare-fun verismo!tspec.integer.IntOrd.ord_int%default%.? (Dcr Type Poly) Poly)
(declare-fun verismo!arch.entities.impl&%6.spec_from_int.? (Poly) core!option.Option.)
(declare-fun verismo!arch.entities.impl&%9.is_VMPL0.? (Poly) Bool)
(declare-fun verismo!arch.entities.impl&%9.is_VMPL1.? (Poly) Bool)
(declare-fun verismo!arch.entities.impl&%9.is_VMPL2.? (Poly) Bool)
(declare-fun verismo!arch.entities.impl&%9.is_VMPL3.? (Poly) Bool)
(assert (forall ((Self%&. Dcr) (Self%& Type) (T&. Dcr) (T& Type) (self! Poly)) (! (=> (has_type self! Self%&) (has_type (vstd!std_specs.option.OptionAdditionalFns.get_Some_0.? Self%&. Self%& T&. T& self!) T&)) :pattern ((vstd!std_specs.option.OptionAdditionalFns.get_Some_0.? Self%&. Self%& T&. T& self!)) )))
(assert (fuel_bool_default fuel%vstd!std_specs.option.impl&%0.get_Some_0.))
(assert (=> (fuel_bool fuel%vstd!std_specs.option.impl&%0.get_Some_0.) (forall ((T&. Dcr) (T& Type) (self! Poly)) (! (= (vstd!std_specs.option.OptionAdditionalFns.get_Some_0.? $ (TYPE%core!option.Option. T&. T&) T&. T& self!) (core!option.Option./Some/0 (%Poly%core!option.Option. self!))) :pattern ((vstd!std_specs.option.OptionAdditionalFns.get_Some_0.? $ (TYPE%core!option.Option. T&. T&) T&. T& self!)) ))))
(assert (fuel_bool_default fuel%verismo!arch.entities.impl&%6.spec_from_int.))
(assert (=> (fuel_bool fuel%verismo!arch.entities.impl&%6.spec_from_int.) (forall ((val! Poly)) (! (= (verismo!arch.entities.impl&%6.spec_from_int.? val!) (ite (< (%I val!) 0) core!option.Option./None (ite (= (%I val!) 0) (core!option.Option./Some (Poly%verismo!arch.entities.VMPL. verismo!arch.entities.VMPL./VMPL0)) (ite (= (%I val!) 1) (core!option.Option./Some (Poly%verismo!arch.entities.VMPL. verismo!arch.entities.VMPL./VMPL1)) (ite (= (%I val!) 2) (core!option.Option./Some (Poly%verismo!arch.entities.VMPL. verismo!arch.entities.VMPL./VMPL2)) (ite (= (%I val!) 3) (core!option.Option./Some (Poly%verismo!arch.entities.VMPL. verismo!arch.entities.VMPL./VMPL3)) core!option.Option./None)))))) :pattern ((verismo!arch.entities.impl&%6.spec_from_int.? val!)) ))))
(assert (forall ((val! Poly)) (! (=> (has_type val! INT) (has_type (Poly%core!option.Option. (verismo!arch.entities.impl&%6.spec_from_int.? val!)) (TYPE%core!option.Option. $ TYPE%verismo!arch.entities.VMPL.))) :pattern ((verismo!arch.entities.impl&%6.spec_from_int.? val!)) )))
(assert (fuel_bool_default fuel%verismo!arch.entities.impl&%9.is_VMPL0.))
;(define-fun is-verismo!arch.entities.VMPL./VMPL0_ ((c verismo!arch.entities.VMPL.)) Bool ((_ is verismo!arch.entities.VMPL./VMPL0) c))
(assert (=> (fuel_bool fuel%verismo!arch.entities.impl&%9.is_VMPL0.) (forall ((self! Poly)) (! (= (verismo!arch.entities.impl&%9.is_VMPL0.? self!) ((_ is verismo!arch.entities.VMPL./VMPL0) (%Poly%verismo!arch.entities.VMPL. self!))) :pattern ((verismo!arch.entities.impl&%9.is_VMPL0.? self!)) ))))
(assert (forall ((Self%&. Dcr) (Self%& Type) (self! Poly)) (! (=> (has_type self! Self%&) (has_type (verismo!tspec.integer.IntValue.as_int.? Self%&. Self%& self!) INT)) :pattern ((verismo!tspec.integer.IntValue.as_int.? Self%&. Self%& self!)) )))
(assert (forall ((Self%&. Dcr) (Self%& Type) (val! Poly)) (! (=> (has_type val! INT) (has_type (verismo!tspec.integer.IntValue.from_int.? Self%&. Self%& val!) Self%&)) :pattern ((verismo!tspec.integer.IntValue.from_int.? Self%&. Self%& val!)) )))
(assert (fuel_bool_default fuel%verismo!arch.entities.impl&%4.as_int.))
;(define-fun is-verismo!arch.entities.VMPL./VMPL1_ ((c verismo!arch.entities.VMPL.)) Bool ((_ is verismo!arch.entities.VMPL./VMPL1) c))
;(define-fun is-verismo!arch.entities.VMPL./VMPL2_ ((c verismo!arch.entities.VMPL.)) Bool ((_ is verismo!arch.entities.VMPL./VMPL2) c))
(assert (=> (fuel_bool fuel%verismo!arch.entities.impl&%4.as_int.) (forall ((self! Poly)) (! (= (verismo!tspec.integer.IntValue.as_int.? $ TYPE%verismo!arch.entities.VMPL. self!) (I (let ((val$ (ite ((_ is verismo!arch.entities.VMPL./VMPL0) (%Poly%verismo!arch.entities.VMPL. self!)) 0 (ite ((_ is verismo!arch.entities.VMPL./VMPL1) (%Poly%verismo!arch.entities.VMPL. self!)) 1 (ite ((_ is verismo!arch.entities.VMPL./VMPL2) (%Poly%verismo!arch.entities.VMPL. self!)) 2 3))))) val$))) :pattern ((verismo!tspec.integer.IntValue.as_int.? $ TYPE%verismo!arch.entities.VMPL. self!)) ))))
(assert (forall ((Self%&. Dcr) (Self%& Type) (self! Poly)) (! (=> (has_type self! Self%&) (has_type (verismo!tspec.integer.IntOrd.ord_int.? Self%&. Self%& self!) INT)) :pattern ((verismo!tspec.integer.IntOrd.ord_int.? Self%&. Self%& self!)) )))
(assert (fuel_bool_default fuel%verismo!arch.entities.impl&%4.from_int.))
(assert (=> (fuel_bool fuel%verismo!arch.entities.impl&%4.from_int.) (forall ((val! Poly)) (! (= (verismo!tspec.integer.IntValue.from_int.? $ TYPE%verismo!arch.entities.VMPL. val!) (core!option.Option./Some/0 (%Poly%core!option.Option. (Poly%core!option.Option. (verismo!arch.entities.impl&%6.spec_from_int.? val!))))) :pattern ((verismo!tspec.integer.IntValue.from_int.? $ TYPE%verismo!arch.entities.VMPL. val!)) ))))
(assert (fuel_bool_default fuel%verismo!arch.entities.impl&%5.ord_int.))
(assert (=> (fuel_bool fuel%verismo!arch.entities.impl&%5.ord_int.) (forall ((self! Poly)) (! (= (verismo!tspec.integer.IntOrd.ord_int.? $ TYPE%verismo!arch.entities.VMPL. self!) (verismo!tspec.integer.IntValue.as_int.? $ TYPE%verismo!arch.entities.VMPL. self!)) :pattern ((verismo!tspec.integer.IntOrd.ord_int.? $ TYPE%verismo!arch.entities.VMPL. self!)) ))))
(assert (tr_bound%verismo!tspec.integer.IntOrd. $ TYPE%verismo!arch.entities.VMPL.))
(assert (fuel_bool_default fuel%verismo!arch.entities.impl&%9.is_VMPL1.))
(assert (=> (fuel_bool fuel%verismo!arch.entities.impl&%9.is_VMPL1.) (forall ((self! Poly)) (! (= (verismo!arch.entities.impl&%9.is_VMPL1.? self!) ((_ is verismo!arch.entities.VMPL./VMPL1) (%Poly%verismo!arch.entities.VMPL. self!))) :pattern ((verismo!arch.entities.impl&%9.is_VMPL1.? self!)) ))))
(assert (fuel_bool_default fuel%verismo!arch.entities.impl&%9.is_VMPL2.))
(assert (=> (fuel_bool fuel%verismo!arch.entities.impl&%9.is_VMPL2.) (forall ((self! Poly)) (! (= (verismo!arch.entities.impl&%9.is_VMPL2.? self!) ((_ is verismo!arch.entities.VMPL./VMPL2) (%Poly%verismo!arch.entities.VMPL. self!))) :pattern ((verismo!arch.entities.impl&%9.is_VMPL2.? self!)) ))))
(assert (fuel_bool_default fuel%verismo!arch.entities.impl&%9.is_VMPL3.))
;(define-fun is-verismo!arch.entities.VMPL./VMPL3_ ((c verismo!arch.entities.VMPL.)) Bool ((_ is verismo!arch.entities.VMPL./VMPL3) c))
(assert (=> (fuel_bool fuel%verismo!arch.entities.impl&%9.is_VMPL3.) (forall ((self! Poly)) (! (= (verismo!arch.entities.impl&%9.is_VMPL3.? self!) ((_ is verismo!arch.entities.VMPL./VMPL3) (%Poly%verismo!arch.entities.VMPL. self!))) :pattern ((verismo!arch.entities.impl&%9.is_VMPL3.? self!)) ))))
(assert (forall ((T&. Dcr) (T& Type)) (! (tr_bound%vstd!std_specs.option.OptionAdditionalFns. $ (TYPE%core!option.Option. T&. T&) T&. T&) :pattern ((tr_bound%vstd!std_specs.option.OptionAdditionalFns. $ (TYPE%core!option.Option. T&. T&) T&. T&)) )))
(assert (tr_bound%verismo!tspec.integer.IntValue. $ TYPE%verismo!arch.entities.VMPL.))
(declare-fun ens%verismo!arch.entities.impl&%6.as_u64. (verismo!arch.entities.VMPL. Int) Bool)
(assert (forall ((self! verismo!arch.entities.VMPL.) (ret! Int)) (! (= (ens%verismo!arch.entities.impl&%6.as_u64. self! ret!) (and (uInv 64 ret!) (= ret! (%I (verismo!tspec.integer.IntValue.as_int.? $ TYPE%verismo!arch.entities.VMPL. (Poly%verismo!arch.entities.VMPL. self!)))))) :pattern ((ens%verismo!arch.entities.impl&%6.as_u64. self! ret!)) )))
(declare-const ret! Int)
(declare-const self! verismo!arch.entities.VMPL.)
(assert fuel_defaults)
(declare-const %%location_label%%0 Bool)
(assert (not (=> (= ret! (let ((ret$ (ite ((_ is verismo!arch.entities.VMPL./VMPL0) self!) 0 (ite ((_ is verismo!arch.entities.VMPL./VMPL1) self!) 1 (ite ((_ is verismo!arch.entities.VMPL./VMPL2) self!) 2 3))))) ret$)) (=> %%location_label%%0 (= ret! (%I (verismo!tspec.integer.IntValue.as_int.? $ TYPE%verismo!arch.entities.VMPL. (Poly%verismo!arch.entities.VMPL. self!))))))))
(check-sat)
(exit)
